NAME: clu_25_3
TYPE: TSP
DIMENSION: 25
EDGE_WEIGHT_TYPE: EUC_2D
NODE_COORD_SECTION
1 47 21
2 27 0
3 45 46
4 43 10
5 10 51
6 10 46
7 22 -12
8 -17 62
9 29 17
10 21 -8
11 23 27
12 37 15
13 37 5
14 21 6
15 33 22
16 2 57
17 50 26
18 23 45
19 23 37
20 52 17
21 13 52
22 4 41
23 40 20
24 26 6
25 30 23
EOF
